Gurobi 12.0.3:   lim:time = 14400

  mip:bestbound = 1

Set parameter LogToConsole to value 1

  tech:outlev = 1

Set parameter Cuts to value 3

  cut:cuts = 3

Set parameter Presolve to value 2

  pre:solve = 2

Set parameter MIPFocus to value 2

  mip:focus = 2

Set parameter Symmetry to value 2

  mip:symmetry = 2

Set parameter InfUnbdInfo to value 1

Gurobi Optimizer version 12.0.3 build v12.0.3rc0 (win64 - Windows 11+.0 (26200.2))



CPU model: 13th Gen Intel(R) Core(TM) i7-13700K, instruction set [SSE2|AVX|AVX2]

Thread count: 16 physical cores, 24 logical processors, using up to 24 threads



Non-default parameters:

TimeLimit  14400

MIPFocus  2

Symmetry  2

Cuts  3

InfUnbdInfo  1

Presolve  2



Optimize a model with 323 rows, 612 columns and 3383 nonzeros

Model fingerprint: 0xcbd6d6f2

Model has 4 quadratic objective terms

Model has 7 quadratic constraints

Variable types: 35 continuous, 577 integer (0 binary)

Coefficient statistics:

  Matrix range     [1e+00, 1e+05]

  QMatrix range    [1e+00, 1e+00]

  QLMatrix range   [1e+00, 1e+01]

  Objective range  [4e+00, 1e+02]

  QObjective range [2e+00, 2e+00]

  Bounds range     [1e+00, 1e+02]

  RHS range        [1e+00, 1e+05]

  QRHS range       [1e+02, 1e+02]

Presolve removed 22 rows and 55 columns

Presolve time: 0.04s

Presolved: 678 rows, 921 columns, 5420 nonzeros

Variable types: 163 continuous, 758 integer (678 binary)

Root relaxation presolve removed 20 rows and 5 columns

Root relaxation presolved: 508 rows, 768 columns, 7803 nonzeros





Root relaxation: objective 3.205853e+01, 121 iterations, 0.01 seconds (0.01 work units)



    Nodes    |    Current Node    |     Objective Bounds      |     Work

 Expl Unexpl |  Obj  Depth IntInf | Incumbent    BestBd   Gap | It/Node Time



     0     0   32.05853    0   38          -   32.05853      -     -    0s

H    0     0                     276.6300000   32.05853  88.4%     -    0s

H    0     0                     266.1000000   57.25667  78.5%     -    0s

H    0     0                     254.9800000   57.25667  77.5%     -    0s

     0     0   67.68389    0   37  254.98000   67.68389  73.5%     -    0s

H    0     0                     214.4300000   67.68389  68.4%     -    0s

     0     0   68.22947    0   43  214.43000   68.22947  68.2%     -    0s

     0     0   68.22947    0   45  214.43000   68.22947  68.2%     -    0s

     0     0   68.22947    0   46  214.43000   68.22947  68.2%     -    0s

H    0     0                     202.4300000   68.22947  66.3%     -    0s

     0     0   74.77333    0   18  202.43000   74.77333  63.1%     -    0s

     0     0   74.77333    0   29  202.43000   74.77333  63.1%     -    0s

     0     0   77.08000    0   28  202.43000   77.08000  61.9%     -    0s

     0     0   77.08000    0   28  202.43000   77.08000  61.9%     -    0s

     0     2   77.08000    0   28  202.43000   77.08000  61.9%     -    0s

* 1807   680              25     195.8500000   85.66030  56.3%  13.4    0s

* 1808   680              23     193.1400000   85.66030  55.6%  13.4    0s

H 3043   910                     192.0600000   92.24838  52.0%  14.2    1s

H 4498   849                     183.1700000  102.39160  44.1%  14.3    1s

H 5373   771                     182.5300000  112.93608  38.1%  14.9    1s

H 6594   204                     181.2600000  139.83000  22.9%  15.2    1s

* 6977    87              31     181.2599867  156.62333  13.6%  15.1    2s



Cutting planes:

  Learned: 13

  Gomory: 20

  Lift-and-project: 18

  Cover: 15

  Implied bound: 37

  Projected implied bound: 36

  Clique: 8

  MIR: 73

  StrongCG: 4

  Flow cover: 287

  Inf proof: 16

  Zero half: 239

  Mod-K: 1

  RLT: 109

  Relax-and-lift: 50



Explored 7387 nodes (109473 simplex iterations) in 2.09 seconds (2.00 work units)

Thread count was 24 (of 24 available processors)



Solution count 10: 181.26 181.26 182.53 ... 254.98



Optimal solution found (tolerance 1.00e-04)

Warning: max constraint violation (5.8378e-06) exceeds tolerance

Best objective 1.812599925669e+02, best bound 1.812599867291e+02, gap 0.0000%



AMPL MP initial flat model has 612 variables (0 integer, 577 binary);

Objectives: 1 quadratic; 

Constraints:  323 linear; 7 quadratic;



AMPL MP final model has 612 variables (0 integer, 577 binary);

Objectives: 1 quadratic; 

Constraints:  323 linear; 7 quadratic;





-----RESULTS INFO-----
running_time:  3.094
TC.best_bound:  181.259986729096
TC:  181.25999256693524
MIP Gap (%):  3.220699260163258e-06
=== Vehicle Routes ===
Vehicle 1: 0 → 2
Vehicle 1: 1 → 16
Vehicle 1: 2 → 9
Vehicle 1: 9 → 12
Vehicle 1: 12 → 1
Vehicle 2: 0 → 16
Vehicle 3: 0 → 16

=== Full Vehicle Routes ===
Vehicle 1: 0 → 2 → 9 → 12 → 1 → 0 (93<100)
Vehicle 2: 0 → 0 (0<100)
Vehicle 3: 0 → 0 (0<100)
Arc used by MRT line: y variables:
MRT used: 9 → 10
Customer assigment to PL: u variables:
3 9
4 12
5 9
6 11
8 10
Node is served by regular vehicle: g variables:
1
2
9
12
Customer assigment to Home delivery: gm variables:
1
2
Node total demands: ntd variables:
1 13 1
2 12 1
6 0 0
7 1.163094128342479e-06 5.815470641712395e-07
8 0 0
15 0 0
9 34 1
10 0 0
11 3.198508853073254e-05 5.81547064195137e-07
12 34.99996685181734 1
13 0 0
14 0 0
Customer's demand delivered to PL: l variables:
3
4
5
6
8
Lockers load <= capacity:
0 <= 93
22 <= 86
12 <= 90
25 <= 89
9 <= 76
0 <= 78
0 <= 96
